Route #1: 25 21 13 14 5 3
Route #2: 39 34 52 11 24 41 17 28 4
Route #3: 22 45 42 48 12 7 47
Route #4: 9 16 32 15 19 23 43 50 36 2 37
Route #5: 38 18 40 26 10 49 29 44 30 1
Route #6: 51 46 8 35 27
Route #7: 31 20 6 33
Cost 1010
Time 0.078191
